Traveling Salesman Problem/TSP_generados/Aleatorio1620391390_15.tsp
NAME: Aleatorio1620391390_15.tsp
COMMENT: Randomly generated scenario
TYPE: TSP
DIMENSION: 15
EDGE_WEIGHT_TYPE: ATT
NODE_COORD_SECTION
1 14.82 5.64
2 22.49 49.14
3 45.16 49.51
4 32.26 26.81
5 11.34 34.4
6 38.48 2.55
7 27.82 16.91
8 39.87 48.15
9 27.84 6.41
10 15.3 4.32
11 47.7 0.27
12 41.58 1.53
13 31.98 38.91
14 12.81 36.64
15 13.04 9.1
