Traveling Salesman Problem/TSP_generados/Aleatorio1620391390_15.opt.tour
NAME: Aleatorio1620391390_15.opt.tour
COMMENT: Optimal solution for Aleatorio1620391390_15 (171.3472771924115)
TYPE: TOUR
DIMENSION: 15
TOUR_SECTION
1 10 9 6 12 11 7 4 13 3 8 2 14 5 15
-1
EOF
